c Generated map
c Size: 8 * 8, weights in range: 1 to 10, walls: True, with ratio 0.1
c dim 3 of 9
c
p sp 64 92
c graph contains 64 nodes and 92 arcs
c
a 1 9 9
a 9 1 9
a 1 2 4
a 2 1 4
a 2 10 4
a 10 2 4
a 2 3 4
a 3 2 4
a 3 11 2
a 11 3 2
a 3 4 6
a 4 3 6
a 4 12 4
a 12 4 4
a 4 5 3
a 5 4 3
a 5 13 6
a 13 5 6
a 5 6 5
a 6 5 5
a 6 7 3
a 7 6 3
a 7 15 2
a 15 7 2
a 9 17 1
a 17 9 1
a 9 10 7
a 10 9 7
a 10 18 2
a 18 10 2
a 10 11 4
a 11 10 4
a 11 19 1
a 19 11 1
a 11 12 10
a 12 11 10
a 12 20 5
a 20 12 5
a 12 13 7
a 13 12 7
a 13 21 1
a 21 13 1
a 15 23 8
a 23 15 8
a 17 25 7
a 25 17 7
a 17 18 7
a 18 17 7
a 18 26 7
a 26 18 7
a 18 19 8
a 19 18 8
a 19 27 9
a 27 19 9
a 19 20 10
a 20 19 10
a 20 28 5
a 28 20 5
a 20 21 2
a 21 20 2
a 21 29 5
a 29 21 5
a 21 22 4
a 22 21 4
a 22 30 10
a 30 22 10
a 22 23 8
a 23 22 8
a 23 31 6
a 31 23 6
a 23 24 4
a 24 23 4
a 24 32 2
a 32 24 2
a 25 33 3
a 33 25 3
a 25 26 6
a 26 25 6
a 26 34 7
a 34 26 7
a 26 27 6
a 27 26 6
a 27 35 10
a 35 27 10
a 27 28 5
a 28 27 5
a 28 36 6
a 36 28 6
a 28 29 5
a 29 28 5
a 29 30 6
a 30 29 6
a 30 38 5
a 38 30 5
a 30 31 7
a 31 30 7
a 31 39 7
a 39 31 7
a 31 32 1
a 32 31 1
a 32 40 3
a 40 32 3
a 33 41 4
a 41 33 4
a 33 34 3
a 34 33 3
a 34 35 2
a 35 34 2
a 35 43 2
a 43 35 2
a 35 36 2
a 36 35 2
a 36 44 8
a 44 36 8
a 38 46 4
a 46 38 4
a 38 39 8
a 39 38 8
a 39 47 1
a 47 39 1
a 39 40 3
a 40 39 3
a 40 48 5
a 48 40 5
a 41 49 2
a 49 41 2
a 43 51 5
a 51 43 5
a 43 44 2
a 44 43 2
a 44 52 1
a 52 44 1
a 44 45 3
a 45 44 3
a 45 46 5
a 46 45 5
a 46 54 9
a 54 46 9
a 46 47 1
a 47 46 1
a 47 55 3
a 55 47 3
a 47 48 6
a 48 47 6
a 48 56 6
a 56 48 6
a 49 57 9
a 57 49 9
a 49 50 8
a 50 49 8
a 50 58 4
a 58 50 4
a 50 51 3
a 51 50 3
a 51 59 7
a 59 51 7
a 51 52 2
a 52 51 2
a 52 60 2
a 60 52 2
a 54 62 10
a 62 54 10
a 54 55 10
a 55 54 10
a 55 63 3
a 63 55 3
a 55 56 6
a 56 55 6
a 56 64 9
a 64 56 9
a 57 58 7
a 58 57 7
a 58 59 10
a 59 58 10
a 59 60 7
a 60 59 7
a 60 61 6
a 61 60 6
a 61 62 2
a 62 61 2
a 62 63 4
a 63 62 4
a 63 64 10
a 64 63 10
